
Gurobi 9.5.2 (mac64[arm]) logging started Thu Dec  8 14:17:58 2022

Set parameter LogFile to value "./ccga_results/2022-12-08 14-17-42-82/FMP_[2022-12-08 14:17:58.541]_gurobi_log.txt"

Gurobi 9.5.2 (mac64[arm]) logging started Thu Dec  8 14:17:58 2022

Set parameter LogFile to value "./ccga_results/2022-12-08 14-17-42-82/FMP_[2022-12-08 14:17:58.541]_gurobi_log.txt"
Set parameter TimeLimit to value 180
Gurobi Optimizer version 9.5.2 build v9.5.2rc0 (mac64[arm])
Thread count: 8 physical cores, 8 logical processors, using up to 8 threads
Optimize a model with 3268 rows, 1323 columns and 11126 nonzeros
Model fingerprint: 0x371313a6
Variable types: 1275 continuous, 48 integer (48 binary)
Coefficient statistics:
  Matrix range     [3e-02, 1e+08]
  Objective range  [1e+00, 1e+00]
  Bounds range     [0e+00, 0e+00]
  RHS range        [1e+00, 1e+08]
Presolve removed 986 rows and 350 columns
Presolve time: 0.01s
Presolved: 2282 rows, 973 columns, 7615 nonzeros
Variable types: 949 continuous, 24 integer (24 binary)
Found heuristic solution: objective -0.0000000

Root relaxation: objective 6.701133e+02, 663 iterations, 0.01 seconds (0.02 work units)

    Nodes    |    Current Node    |     Objective Bounds      |     Work
 Expl Unexpl |  Obj  Depth IntInf | Incumbent    BestBd   Gap | It/Node Time

     0     0  670.11333    0   24   -0.00000  670.11333      -     -    0s
     0     0  377.42386    0   24   -0.00000  377.42386      -     -    0s
     0     0  367.24720    0   24   -0.00000  367.24720      -     -    0s
     0     0  367.24720    0   24   -0.00000  367.24720      -     -    0s
     0     0  367.15973    0   24   -0.00000  367.15973      -     -    0s
     0     0  365.98748    0   24   -0.00000  365.98748      -     -    0s
H    0     0                      19.5913396  365.98748  1768%     -    0s
     0     0  365.98748    0   24   19.59134  365.98748  1768%     -    0s
     0     0  241.57400    0   21   19.59134  241.57400  1133%     -    0s
     0     0  215.86860    0   24   19.59134  215.86860  1002%     -    0s
     0     0  195.51403    0   24   19.59134  195.51403   898%     -    0s
     0     0  189.84301    0   24   19.59134  189.84301   869%     -    0s
     0     0  189.18935    0   24   19.59134  189.18935   866%     -    0s
     0     0  140.70523    0   24   19.59134  140.70523   618%     -    0s
     0     0  127.94073    0   24   19.59134  127.94073   553%     -    0s
     0     0  118.89157    0   24   19.59134  118.89157   507%     -    0s
     0     0  117.23789    0   24   19.59134  117.23789   498%     -    0s
     0     0  116.98327    0   24   19.59134  116.98327   497%     -    0s
     0     0  116.26630    0   24   19.59134  116.26630   493%     -    0s
     0     0  116.11938    0   24   19.59134  116.11938   493%     -    0s
     0     0  115.44832    0   24   19.59134  115.44832   489%     -    0s
     0     0  115.41675    0   24   19.59134  115.41675   489%     -    0s
     0     0  110.93210    0   24   19.59134  110.93210   466%     -    0s
     0     0  109.60630    0   24   19.59134  109.60630   459%     -    0s
     0     0  109.30640    0   24   19.59134  109.30640   458%     -    0s
     0     0  109.03952    0   24   19.59134  109.03952   457%     -    0s
     0     0  108.61412    0   24   19.59134  108.61412   454%     -    0s
     0     0  108.48211    0   24   19.59134  108.48211   454%     -    0s
     0     0  108.43152    0   24   19.59134  108.43152   453%     -    0s
     0     0  107.58775    0   24   19.59134  107.58775   449%     -    0s
H    0     0                      39.4703080  107.58775   173%     -    0s
     0     2  107.58775    0   24   39.47031  107.58775   173%     -    0s

Cutting planes:
  Gomory: 8
  MIR: 22
  Flow cover: 2
  RLT: 83

Explored 33 nodes (5735 simplex iterations) in 0.85 seconds (1.19 work units)
Thread count was 8 (of 8 available processors)

Solution count 3: 39.4703 19.5913 -0 

Optimal solution found (tolerance 1.00e-03)
Best objective 3.947030798741e+01, best bound 3.950492309167e+01, gap 0.0877%

User-callback calls 1009, time in user-callback 0.00 sec
Gurobi Optimizer version 9.5.2 build v9.5.2rc0 (mac64[arm])
Thread count: 8 physical cores, 8 logical processors, using up to 8 threads
Optimize a model with 6536 rows, 2597 columns and 22266 nonzeros
Model fingerprint: 0x4f697cf0
Variable types: 2549 continuous, 48 integer (48 binary)
Coefficient statistics:
  Matrix range     [3e-02, 1e+08]
  Objective range  [1e+00, 1e+00]
  Bounds range     [0e+00, 0e+00]
  RHS range        [1e+00, 1e+08]

MIP start from previous solve produced solution with objective -0 (0.02s)
Loaded MIP start from previous solve with objective -0

Presolve removed 1958 rows and 662 columns
Presolve time: 0.02s
Presolved: 4578 rows, 1935 columns, 15362 nonzeros
Variable types: 1911 continuous, 24 integer (24 binary)

Root relaxation: objective 6.701133e+02, 3450 iterations, 0.11 seconds (0.28 work units)

    Nodes    |    Current Node    |     Objective Bounds      |     Work
 Expl Unexpl |  Obj  Depth IntInf | Incumbent    BestBd   Gap | It/Node Time

     0     0  670.11333    0   24   -0.00000  670.11333      -     -    0s
     0     0  409.37556    0   24   -0.00000  409.37556      -     -    0s
     0     0  401.03816    0   24   -0.00000  401.03816      -     -    0s
     0     0  391.48059    0   24   -0.00000  391.48059      -     -    0s
     0     0  391.48059    0   24   -0.00000  391.48059      -     -    0s
     0     0  254.76428    0   24   -0.00000  254.76428      -     -    0s
     0     0  183.12967    0   23   -0.00000  183.12967      -     -    0s
     0     0  182.23915    0   24   -0.00000  182.23915      -     -    0s
     0     0  181.40323    0   23   -0.00000  181.40323      -     -    0s
     0     0  180.16899    0   24   -0.00000  180.16899      -     -    0s
     0     0  179.98581    0   24   -0.00000  179.98581      -     -    0s
     0     0  138.90262    0   24   -0.00000  138.90262      -     -    0s
     0     0  127.19990    0   24   -0.00000  127.19990      -     -    0s
     0     0  122.24869    0   24   -0.00000  122.24869      -     -    0s
     0     0  122.24214    0   24   -0.00000  122.24214      -     -    0s
     0     0  115.60362    0   20   -0.00000  115.60362      -     -    0s
     0     0  111.91026    0   24   -0.00000  111.91026      -     -    0s
     0     0  109.58031    0   24   -0.00000  109.58031      -     -    0s
     0     0  109.58031    0   24   -0.00000  109.58031      -     -    0s
     0     0  108.23395    0   18   -0.00000  108.23395      -     -    0s
H    0     0                      19.5913396  108.23395   452%     -    2s
H    0     0                      19.5913396  108.23395   452%     -    2s
     0     2  108.23395    0   18   19.59134  108.23395   452%     -    2s

Cutting planes:
  Gomory: 6
  MIR: 35
  Flow cover: 8
  RLT: 159

Explored 84 nodes (34258 simplex iterations) in 2.75 seconds (4.75 work units)
Thread count was 8 (of 8 available processors)

Solution count 2: 19.5913 -0 

Optimal solution found (tolerance 1.00e-03)
Best objective 1.959133958358e+01, best bound 1.959133958358e+01, gap 0.0000%

User-callback calls 1698, time in user-callback 0.00 sec
Gurobi Optimizer version 9.5.2 build v9.5.2rc0 (mac64[arm])
Thread count: 8 physical cores, 8 logical processors, using up to 8 threads
Optimize a model with 9804 rows, 3871 columns and 33410 nonzeros
Model fingerprint: 0xb52bf6a9
Variable types: 3823 continuous, 48 integer (48 binary)
Coefficient statistics:
  Matrix range     [3e-02, 1e+08]
  Objective range  [1e+00, 1e+00]
  Bounds range     [0e+00, 0e+00]
  RHS range        [1e+00, 1e+08]

MIP start from previous solve produced solution with objective -0 (0.03s)
Loaded MIP start from previous solve with objective -0

Presolve removed 2931 rows and 975 columns
Presolve time: 0.03s
Presolved: 6873 rows, 2896 columns, 23087 nonzeros
Variable types: 2872 continuous, 24 integer (24 binary)

Root relaxation: objective 6.701133e+02, 6697 iterations, 0.16 seconds (0.23 work units)

    Nodes    |    Current Node    |     Objective Bounds      |     Work
 Expl Unexpl |  Obj  Depth IntInf | Incumbent    BestBd   Gap | It/Node Time

     0     0  670.11333    0   24   -0.00000  670.11333      -     -    0s
     0     0  431.64879    0   24   -0.00000  431.64879      -     -    0s
     0     0  421.35568    0   24   -0.00000  421.35568      -     -    0s
     0     0  414.38777    0   24   -0.00000  414.38777      -     -    0s
     0     0  411.79811    0   24   -0.00000  411.79811      -     -    0s
     0     0  322.92216    0   23   -0.00000  322.92216      -     -    0s
     0     0  312.84682    0   23   -0.00000  312.84682      -     -    0s
     0     0  288.63488    0   24   -0.00000  288.63488      -     -    0s
     0     0  287.22912    0   24   -0.00000  287.22912      -     -    0s
     0     0  206.22607    0   24   -0.00000  206.22607      -     -    0s
     0     0  175.23151    0   23   -0.00000  175.23151      -     -    0s
     0     0  167.55195    0   23   -0.00000  167.55195      -     -    1s
     0     0  165.09754    0   24   -0.00000  165.09754      -     -    1s
     0     0  164.75533    0   24   -0.00000  164.75533      -     -    1s
     0     0  164.70599    0   23   -0.00000  164.70599      -     -    1s
     0     0  164.70599    0   23   -0.00000  164.70599      -     -    1s
H    0     0                       0.0000000  164.70599      -     -    1s
     0     0  116.11609    0   24    0.00000  116.11609      -     -    1s
     0     0  111.61521    0   23    0.00000  111.61521      -     -    1s
H    0     0                       0.0000003  109.45756      -     -    1s
     0     0  109.45756    0   23    0.00000  109.45756      -     -    1s
     0     0  109.45756    0   23    0.00000  109.45756      -     -    1s
     0     0   89.03215    0   24    0.00000   89.03215      -     -    1s
H    0     0                      17.0091554   89.03215   423%     -    4s
     0     2   89.03215    0   24   17.00916   89.03215   423%     -    4s
   103     0     cutoff   13        17.00916   20.62473  21.3%   286    5s

Cutting planes:
  Gomory: 5
  MIR: 70
  Flow cover: 17
  RLT: 243

Explored 110 nodes (48766 simplex iterations) in 5.03 seconds (9.04 work units)
Thread count was 8 (of 8 available processors)

Solution count 3: 17.0092 2.9535e-07 2.81313e-08 

Optimal solution found (tolerance 1.00e-03)
Best objective 1.700915538627e+01, best bound 1.700915538627e+01, gap 0.0000%

User-callback calls 2259, time in user-callback 0.00 sec
Gurobi Optimizer version 9.5.2 build v9.5.2rc0 (mac64[arm])
Thread count: 8 physical cores, 8 logical processors, using up to 8 threads
Optimize a model with 13072 rows, 5145 columns and 44544 nonzeros
Model fingerprint: 0xd1533772
Variable types: 5097 continuous, 48 integer (48 binary)
Coefficient statistics:
  Matrix range     [3e-02, 1e+08]
  Objective range  [1e+00, 1e+00]
  Bounds range     [0e+00, 0e+00]
  RHS range        [1e+00, 1e+08]

MIP start from previous solve produced solution with objective -0 (0.03s)
Loaded MIP start from previous solve with objective -0

Presolve removed 3910 rows and 1294 columns
Presolve time: 0.04s
Presolved: 9162 rows, 3851 columns, 30768 nonzeros
Variable types: 3827 continuous, 24 integer (24 binary)

Root relaxation: objective 6.701133e+02, 10074 iterations, 0.21 seconds (0.34 work units)

    Nodes    |    Current Node    |     Objective Bounds      |     Work
 Expl Unexpl |  Obj  Depth IntInf | Incumbent    BestBd   Gap | It/Node Time

     0     0  670.11333    0   24   -0.00000  670.11333      -     -    0s
     0     0  390.93846    0   24   -0.00000  390.93846      -     -    0s
     0     0  390.93846    0   24   -0.00000  390.93846      -     -    0s
     0     0  277.34921    0   24   -0.00000  277.34921      -     -    0s
     0     0  260.26015    0   24   -0.00000  260.26015      -     -    0s
     0     0  248.80401    0   24   -0.00000  248.80401      -     -    0s
     0     0  245.06369    0   24   -0.00000  245.06369      -     -    0s
     0     0  243.81401    0   24   -0.00000  243.81401      -     -    1s
     0     0  243.81401    0   24   -0.00000  243.81401      -     -    1s
     0     0  169.26188    0   24   -0.00000  169.26188      -     -    1s
     0     0  156.29162    0   24   -0.00000  156.29162      -     -    1s
     0     0  153.44425    0   24   -0.00000  153.44425      -     -    1s
     0     0  153.00527    0   24   -0.00000  153.00527      -     -    1s
     0     0  152.83880    0   24   -0.00000  152.83880      -     -    1s
     0     0  152.77327    0   24   -0.00000  152.77327      -     -    1s
     0     0  152.69405    0   24   -0.00000  152.69405      -     -    1s
     0     0  152.69391    0   24   -0.00000  152.69391      -     -    1s
     0     0  123.30018    0   24   -0.00000  123.30018      -     -    1s
H    0     0                       0.0000000  118.15224      -     -    1s
     0     0  118.15224    0   24    0.00000  118.15224      -     -    1s
     0     0  116.62654    0   24    0.00000  116.62654      -     -    2s
     0     0  112.89088    0   20    0.00000  112.89088      -     -    2s
     0     0  112.89088    0   21    0.00000  112.89088      -     -    2s
     0     0   95.77733    0   18    0.00000   95.77733      -     -    2s
     0     2   95.77733    0   18    0.00000   95.77733      -     -    5s
*  183   109              16       0.0000004   35.36720      -   576    8s
*  196   109              19       0.0000004   35.36720      -   547    8s
   302   101   17.25350   11   12    0.00000   24.75140      -   491   10s
*  415    88              15       0.0000029   21.00092      -   454   10s
*  420    88              18       0.0000029   21.00092      -   450   10s
H  479    46                       0.0000147    3.22728      -   448   12s
H  516    21                       0.0000147    2.09928      -   453   13s

Cutting planes:
  Gomory: 7
  MIR: 105
  Flow cover: 26
  RLT: 346

Explored 561 nodes (270050 simplex iterations) in 13.89 seconds (28.06 work units)
Thread count was 8 (of 8 available processors)

Solution count 6: 1.47457e-05 2.85072e-06 2.85034e-06 ... 3.73364e-08
No other solutions better than 1.47457e-05

Optimal solution found (tolerance 1.00e-03)
Best objective 1.474565578974e-05, best bound 1.474565578974e-05, gap 0.0000%

User-callback calls 4272, time in user-callback 0.00 sec
